140858
13,46,60,14,3,102,34,74,31,62,52,83,6,17,48,38,72,47,84,10,40,66,94,53,70,35,36,69,93,100,37,103,104,2,77,95,59,90,78,42,0,86,27,26,43,65,58,9,75,57,23,101,73,82,56,79,88,92,11,22,91,7,105,96,54,28,29,4,51,64,30,12,87,97,41,80,85,45,76,5,68,39,55,19,15,63,89,16,20,21,61,24,44,1,32,81,71,50,99,98,18,8,33,25,49,67
